6678.1 6678.1 6678.1 6678.1 6678.1 6678.1 6678.1 6678.1 6678.1 6678.1 6678.1 6678.1 6678.1 6678.1 6678.1 6678.1 6678.1 6678.1 6678.1 6678.1 6678.1 6678.1 6678.1 6678.1 6678.1 6678.1 6678.1 6678.1 6678.1 6678.1 6678.1 6678.1 6678.1 6678.1 6678.1 6678.1 6678.1 6678.1 6678.1 6678.1 6678.1 6678.1 6678.1 6678.1 6678.1 6678.1 6678.1 6678.1 6678.1 6678.1 6678.1 6678.1 6678.1 6678.1 6678.1 6678.1 6678.1 6678.1 6678.1 6678.1 6678.1 6678.1 6678.1 6678.1 6678.1 6678.1 6678.1 6678.1 6678.1 6678.1 6678.1 6678.1 6678.1 